gen cost
0 1448
1 1433
2 1429
3 1406
4 1372
5 1368
6 1368
7 1357
8 1341
9 1341
10 1293
11 1279
12 1279
13 1274
14 1274
15 1248
16 1243
17 1243
18 1237
19 1234
20 1218
21 1206
22 1206
23 1198
24 1194
25 1187
26 1171
27 1169
28 1158
29 1158
30 1157
31 1147
32 1139
33 1131
34 1131
35 1131
36 1131
37 1128
38 1128
39 1128
40 1122
41 1122
42 1122
43 1122
44 1122
45 1122
46 1122
47 1122
48 1122
49 1122
